UC.mps
NAME          UC
ROWS
 E  R0001
 E  R0002
 E  R0003
 E  R0004
 E  R0005
 E  R0006
 G  R0007
 G  R0008
 G  R0009
 G  R0010
 G  R0011
 G  R0012
 E  R0013
 E  R0014
 E  R0015
 E  R0016
 E  R0017
 E  R0018
 E  R0019
 E  R0020
 E  R0021
 E  R0022
 E  R0023
 E  R0024
 L  R0025
 L  R0026
 L  R0027
 L  R0028
 L  R0029
 L  R0030
 L  R0031
 L  R0032
 L  R0033
 L  R0034
 L  R0035
 L  R0036
 L  R0037
 L  R0038
 L  R0039
 L  R0040
 L  R0041
 L  R0042
 L  R0043
 L  R0044
 L  R0045
 L  R0046
 L  R0047
 L  R0048
 L  R0049
 L  R0050
 L  R0051
 L  R0052
 L  R0053
 L  R0054
 L  R0055
 L  R0056
 L  R0057
 L  R0058
 L  R0059
 L  R0060
 L  R0061
 L  R0062
 L  R0063
 L  R0064
 L  R0065
 L  R0066
 L  R0067
 L  R0068
 L  R0069
 L  R0070
 L  R0071
 L  R0072
 L  R0073
 L  R0074
 L  R0075
 L  R0076
 L  R0077
 L  R0078
 L  R0079
 L  R0080
 L  R0081
 L  R0082
 L  R0083
 L  R0084
 L  R0085
 L  R0086
 L  R0087
 L  R0088
 L  R0089
 L  R0090
 L  R0091
 L  R0092
 L  R0093
 L  R0094
 L  R0095
 L  R0096
 L  R0097
 L  R0098
 L  R0099
 L  R0100
 L  R0101
 L  R0102
 L  R0103
 L  R0104
 L  R0105
 L  R0106
 L  R0107
 L  R0108
 L  R0109
 L  R0110
 L  R0111
 L  R0112
 L  R0113
 L  R0114
 L  R0115
 L  R0116
 L  R0117
 L  R0118
 L  R0119
 L  R0120
 L  R0121
 L  R0122
 L  R0123
 L  R0124
 L  R0125
 L  R0126
 L  R0127
 L  R0128
 L  R0129
 L  R0130
 L  R0131
 L  R0132
 L  R0133
 L  R0134
 L  R0135
 L  R0136
 L  R0137
 L  R0138
 L  R0139
 L  R0140
 L  R0141
 N  R0142
COLUMNS
    C0001     R0001     1
    C0001     R0025     -1
    C0001     R0039     1
    C0001     R0089     1
    C0001     R0119     -1
    C0001     R0142     5
    C0002     R0002     1
    C0002     R0025     1
    C0002     R0026     -1
    C0002     R0039     -1
    C0002     R0040     1
    C0002     R0090     1
    C0002     R0120     -1
    C0002     R0142     5
    C0003     R0003     1
    C0003     R0026     1
    C0003     R0027     -1
    C0003     R0040     -1
    C0003     R0041     1
    C0003     R0091     1
    C0003     R0121     -1
    C0003     R0142     5
    C0004     R0004     1
    C0004     R0027     1
    C0004     R0028     -1
    C0004     R0041     -1
    C0004     R0042     1
    C0004     R0077     -1
    C0004     R0092     1
    C0004     R0122     -1
    C0004     R0142     5
    C0005     R0005     1
    C0005     R0028     1
    C0005     R0029     -1
    C0005     R0042     -1
    C0005     R0043     1
    C0005     R0078     -1
    C0005     R0093     1
    C0005     R0123     -1
    C0005     R0142     5
    C0006     R0006     1
    C0006     R0029     1
    C0006     R0043     -1
    C0006     R0079     -1
    C0006     R0094     1
    C0006     R0142     5
    C0007     R0001     1
    C0007     R0030     -1
    C0007     R0095     1
    C0007     R0124     -1
    C0007     R0142     15
    C0008     R0002     1
    C0008     R0030     1
    C0008     R0031     -1
    C0008     R0044     1
    C0008     R0096     1
    C0008     R0125     -1
    C0008     R0142     15
    C0009     R0003     1
    C0009     R0031     1
    C0009     R0032     -1
    C0009     R0044     -1
    C0009     R0045     1
    C0009     R0080     -1
    C0009     R0097     1
    C0009     R0126     -1
    C0009     R0142     15
    C0010     R0004     1
    C0010     R0032     1
    C0010     R0033     -1
    C0010     R0045     -1
    C0010     R0046     1
    C0010     R0081     -1
    C0010     R0098     1
    C0010     R0127     -1
    C0010     R0142     15
    C0011     R0005     1
    C0011     R0033     1
    C0011     R0034     -1
    C0011     R0046     -1
    C0011     R0047     1
    C0011     R0082     -1
    C0011     R0099     1
    C0011     R0128     -1
    C0011     R0142     15
    C0012     R0006     1
    C0012     R0034     1
    C0012     R0047     -1
    C0012     R0083     -1
    C0012     R0100     1
    C0012     R0142     15
    C0013     R0001     1
    C0013     R0048     1
    C0013     R0101     1
    C0013     R0142     30
    C0014     R0002     1
    C0014     R0035     -1
    C0014     R0048     -1
    C0014     R0049     1
    C0014     R0084     -1
    C0014     R0102     1
    C0014     R0129     -1
    C0014     R0142     30
    C0015     R0003     1
    C0015     R0035     1
    C0015     R0036     -1
    C0015     R0049     -1
    C0015     R0050     1
    C0015     R0085     -1
    C0015     R0103     1
    C0015     R0130     -1
    C0015     R0142     30
    C0016     R0004     1
    C0016     R0036     1
    C0016     R0037     -1
    C0016     R0050     -1
    C0016     R0051     1
    C0016     R0086     -1
    C0016     R0104     1
    C0016     R0131     -1
    C0016     R0142     30
    C0017     R0005     1
    C0017     R0037     1
    C0017     R0038     -1
    C0017     R0051     -1
    C0017     R0052     1
    C0017     R0087     -1
    C0017     R0105     1
    C0017     R0132     -1
    C0017     R0142     30
    C0018     R0006     1
    C0018     R0038     1
    C0018     R0052     -1
    C0018     R0088     -1
    C0018     R0106     1
    C0018     R0142     30
    C0019     R0007     1
    C0019     R0089     -1
    C0020     R0008     1
    C0020     R0090     -1
    C0020     R0119     1
    C0021     R0009     1
    C0021     R0091     -1
    C0021     R0120     1
    C0021     R0133     1
    C0022     R0010     1
    C0022     R0092     -1
    C0022     R0107     1
    C0022     R0121     1
    C0022     R0134     1
    C0023     R0011     1
    C0023     R0093     -1
    C0023     R0108     1
    C0023     R0122     1
    C0024     R0012     1
    C0024     R0094     -1
    C0024     R0109     1
    C0024     R0123     1
    C0025     R0007     1
    C0025     R0095     -1
    C0026     R0008     1
    C0026     R0096     -1
    C0026     R0124     1
    C0026     R0135     1
    C0027     R0009     1
    C0027     R0097     -1
    C0027     R0110     1
    C0027     R0125     1
    C0027     R0136     1
    C0028     R0010     1
    C0028     R0098     -1
    C0028     R0111     1
    C0028     R0126     1
    C0028     R0137     1
    C0029     R0011     1
    C0029     R0099     -1
    C0029     R0112     1
    C0029     R0127     1
    C0030     R0012     1
    C0030     R0100     -1
    C0030     R0113     1
    C0030     R0128     1
    C0031     R0007     1
    C0031     R0101     -1
    C0031     R0138     1
    C0032     R0008     1
    C0032     R0102     -1
    C0032     R0114     1
    C0032     R0139     1
    C0033     R0009     1
    C0033     R0103     -1
    C0033     R0115     1
    C0033     R0129     1
    C0033     R0140     1
    C0034     R0010     1
    C0034     R0104     -1
    C0034     R0116     1
    C0034     R0130     1
    C0034     R0141     1
    C0035     R0011     1
    C0035     R0105     -1
    C0035     R0117     1
    C0035     R0131     1
    C0036     R0012     1
    C0036     R0106     -1
    C0036     R0118     1
    C0036     R0132     1
    INT1      'MARKER'                 'INTORG'
    C0037     R0013     -1
    C0037     R0014     1
    C0037     R0028     -50
    C0037     R0041     -30
    C0037     R0053     -1
    C0037     R0065     1
    C0037     R0077     80
    C0037     R0107     -300
    C0037     R0122     -50
    C0037     R0134     -300
    C0038     R0014     -1
    C0038     R0015     1
    C0038     R0029     -50
    C0038     R0042     -30
    C0038     R0054     -1
    C0038     R0066     1
    C0038     R0078     80
    C0038     R0108     -300
    C0038     R0123     -50
    C0039     R0015     -1
    C0039     R0043     -30
    C0039     R0055     -1
    C0039     R0067     1
    C0039     R0079     80
    C0039     R0109     -300
    C0040     R0016     -1
    C0040     R0017     1
    C0040     R0032     -60
    C0040     R0044     -40
    C0040     R0056     -1
    C0040     R0068     1
    C0040     R0080     50
    C0040     R0110     -200
    C0040     R0126     -60
    C0040     R0136     -200
    C0041     R0017     -1
    C0041     R0018     1
    C0041     R0033     -60
    C0041     R0045     -40
    C0041     R0057     -1
    C0041     R0069     1
    C0041     R0081     50
    C0041     R0111     -200
    C0041     R0127     -60
    C0041     R0137     -200
    C0042     R0018     -1
    C0042     R0019     1
    C0042     R0034     -60
    C0042     R0046     -40
    C0042     R0058     -1
    C0042     R0070     1
    C0042     R0082     50
    C0042     R0112     -200
    C0042     R0128     -60
    C0043     R0019     -1
    C0043     R0047     -40
    C0043     R0059     -1
    C0043     R0071     1
    C0043     R0083     50
    C0043     R0113     -200
    C0044     R0020     -1
    C0044     R0021     1
    C0044     R0035     -70
    C0044     R0048     -50
    C0044     R0060     -1
    C0044     R0072     1
    C0044     R0084     30
    C0044     R0114     -100
    C0044     R0129     -70
    C0044     R0139     -100
    C0045     R0021     -1
    C0045     R0022     1
    C0045     R0036     -70
    C0045     R0049     -50
    C0045     R0061     -1
    C0045     R0073     1
    C0045     R0085     30
    C0045     R0115     -100
    C0045     R0130     -70
    C0045     R0140     -100
    C0046     R0022     -1
    C0046     R0023     1
    C0046     R0037     -70
    C0046     R0050     -50
    C0046     R0062     -1
    C0046     R0074     1
    C0046     R0086     30
    C0046     R0116     -100
    C0046     R0131     -70
    C0046     R0141     -100
    C0047     R0023     -1
    C0047     R0024     1
    C0047     R0038     -70
    C0047     R0051     -50
    C0047     R0063     -1
    C0047     R0075     1
    C0047     R0087     30
    C0047     R0117     -100
    C0047     R0132     -70
    C0048     R0024     -1
    C0048     R0052     -50
    C0048     R0064     -1
    C0048     R0076     1
    C0048     R0088     30
    C0048     R0118     -100
    C0049     R0013     1
    C0049     R0027     -100
    C0049     R0053     1
    C0049     R0054     1
    C0049     R0055     1
    C0049     R0121     -100
    C0049     R0142     800
    C0050     R0014     1
    C0050     R0028     -100
    C0050     R0054     1
    C0050     R0055     1
    C0050     R0122     -100
    C0050     R0142     800
    C0051     R0015     1
    C0051     R0029     -100
    C0051     R0055     1
    C0051     R0123     -100
    C0051     R0142     800
    C0052     R0016     1
    C0052     R0031     -70
    C0052     R0056     1
    C0052     R0057     1
    C0052     R0125     -70
    C0052     R0142     500
    C0053     R0017     1
    C0053     R0032     -70
    C0053     R0057     1
    C0053     R0058     1
    C0053     R0126     -70
    C0053     R0142     500
    C0054     R0018     1
    C0054     R0033     -70
    C0054     R0058     1
    C0054     R0059     1
    C0054     R0127     -70
    C0054     R0142     500
    C0055     R0019     1
    C0055     R0034     -70
    C0055     R0059     1
    C0055     R0128     -70
    C0055     R0142     500
    C0056     R0020     1
    C0056     R0060     1
    C0056     R0142     250
    C0057     R0021     1
    C0057     R0035     -40
    C0057     R0061     1
    C0057     R0129     -40
    C0057     R0142     250
    C0058     R0022     1
    C0058     R0036     -40
    C0058     R0062     1
    C0058     R0130     -40
    C0058     R0142     250
    C0059     R0023     1
    C0059     R0037     -40
    C0059     R0063     1
    C0059     R0131     -40
    C0059     R0142     250
    C0060     R0024     1
    C0060     R0038     -40
    C0060     R0064     1
    C0060     R0132     -40
    C0060     R0142     250
    C0061     R0013     -1
    C0061     R0041     -80
    C0061     R0065     1
    C0061     R0066     1
    C0061     R0133     220
    C0062     R0014     -1
    C0062     R0042     -80
    C0062     R0066     1
    C0062     R0067     1
    C0062     R0134     220
    C0063     R0015     -1
    C0063     R0043     -80
    C0063     R0067     1
    C0064     R0016     -1
    C0064     R0044     -50
    C0064     R0068     1
    C0064     R0069     1
    C0064     R0135     150
    C0065     R0017     -1
    C0065     R0045     -50
    C0065     R0069     1
    C0065     R0070     1
    C0065     R0136     150
    C0066     R0018     -1
    C0066     R0046     -50
    C0066     R0070     1
    C0066     R0071     1
    C0066     R0137     150
    C0067     R0019     -1
    C0067     R0047     -50
    C0067     R0071     1
    C0068     R0020     -1
    C0068     R0048     -30
    C0068     R0072     1
    C0068     R0073     1
    C0068     R0138     70
    C0069     R0021     -1
    C0069     R0049     -30
    C0069     R0073     1
    C0069     R0074     1
    C0069     R0139     70
    C0070     R0022     -1
    C0070     R0050     -30
    C0070     R0074     1
    C0070     R0075     1
    C0070     R0140     70
    C0071     R0023     -1
    C0071     R0051     -30
    C0071     R0075     1
    C0071     R0076     1
    C0071     R0141     70
    C0072     R0024     -1
    C0072     R0052     -30
    C0072     R0076     1
    INT1END   'MARKER'                 'INTEND'
RHS
    B         R0001     240
    B         R0002     250
    B         R0003     200
    B         R0004     170
    B         R0005     230
    B         R0006     190
    B         R0007     250
    B         R0008     260
    B         R0009     210
    B         R0010     180
    B         R0011     240
    B         R0012     200
    B         R0013     -1
    B         R0016     -1
    B         R0020     -1
    B         R0025     50
    B         R0026     50
    B         R0027     50
    B         R0030     60
    B         R0031     60
    B         R0039     30
    B         R0040     30
    B         R0065     1
    B         R0066     1
    B         R0067     1
    B         R0068     1
    B         R0069     1
    B         R0070     1
    B         R0071     1
    B         R0072     1
    B         R0073     1
    B         R0074     1
    B         R0075     1
    B         R0076     1
    B         R0119     50
    B         R0120     50
    B         R0121     50
    B         R0124     60
    B         R0125     60
    B         R0133     300
    B         R0135     200
    B         R0138     100
BOUNDS
 LO BOUND     C0001     90
 UP BOUND     C0001     170
 LO BOUND     C0002     80
 LO BOUND     C0003     80
 LO BOUND     C0007     50
 UP BOUND     C0007     70
 LO BOUND     C0008     50
 LO BOUND     C0013     30
 UP BOUND     C0013     40
 UP BOUND     C0019     170
 UP BOUND     C0020     300
 UP BOUND     C0021     300
 UP BOUND     C0025     70
 UP BOUND     C0026     200
 UP BOUND     C0031     40
 UP BOUND     C0037     1
 UP BOUND     C0038     1
 UP BOUND     C0039     1
 UP BOUND     C0040     1
 UP BOUND     C0041     1
 UP BOUND     C0042     1
 UP BOUND     C0043     1
 UP BOUND     C0044     1
 UP BOUND     C0045     1
 UP BOUND     C0046     1
 UP BOUND     C0047     1
 UP BOUND     C0048     1
 UP BOUND     C0049     1
 UP BOUND     C0050     1
 UP BOUND     C0051     1
 UP BOUND     C0052     1
 UP BOUND     C0053     1
 UP BOUND     C0054     1
 UP BOUND     C0055     1
 UP BOUND     C0056     1
 UP BOUND     C0057     1
 UP BOUND     C0058     1
 UP BOUND     C0059     1
 UP BOUND     C0060     1
 UP BOUND     C0061     1
 UP BOUND     C0062     1
 UP BOUND     C0063     1
 UP BOUND     C0064     1
 UP BOUND     C0065     1
 UP BOUND     C0066     1
 UP BOUND     C0067     1
 UP BOUND     C0068     1
 UP BOUND     C0069     1
 UP BOUND     C0070     1
 UP BOUND     C0071     1
 UP BOUND     C0072     1
ENDATA
